
Gurobi 11.0.0 (win64) logging started Tue May 21 17:37:52 2024

Set parameter LogFile to value "./Results/StripPacking-ManyRuns/Logs/RU-111-StripPacking-15-3.log"
Set parameter TimeLimit to value 3600
Set parameter Cuts to value 1
Set parameter Presolve to value 1
Set parameter Heuristics to value 1
Set parameter LPWarmStart to value 2
Gurobi Optimizer version 11.0.0 build v11.0.0rc2 (win64 - Windows 10.0 (19045.2))

CPU model: Intel(R) Core(TM) i9-10980XE CPU @ 3.00GHz, instruction set [SSE2|AVX|AVX2|AVX512]
Thread count: 18 physical cores, 36 logical processors, using up to 18 threads

Optimize a model with 1590 rows, 451 columns and 4230 nonzeros
Model fingerprint: 0x21125acd
Variable types: 31 continuous, 420 integer (420 binary)
Coefficient statistics:
  Matrix range     [1e+00, 1e+04]
  Objective range  [1e+00, 1e+00]
  Bounds range     [1e+00, 1e+04]
  RHS range        [1e+00, 1e+04]

Warning: Completing partial solution with 420 unfixed non-continuous variables out of 420
User MIP start produced solution with objective 72 (0.00s)
User MIP start produced solution with objective 72 (0.00s)
Loaded user MIP start with objective 72

Presolve removed 210 rows and 0 columns
Presolve time: 0.02s
Presolved: 1380 rows, 451 columns, 4394 nonzeros
Variable types: 31 continuous, 420 integer (420 binary)

Root relaxation: objective 3.700000e+01, 366 iterations, 0.02 seconds (0.01 work units)

    Nodes    |    Current Node    |     Objective Bounds      |     Work
 Expl Unexpl |  Obj  Depth IntInf | Incumbent    BestBd   Gap | It/Node Time

     0     0   37.00000    0   30   72.00000   37.00000  48.6%     -    0s
H    0     0                      71.0000000   37.00000  47.9%     -    0s
     0     0   37.00000    0   53   71.00000   37.00000  47.9%     -    0s
     0     0   37.00000    0   50   71.00000   37.00000  47.9%     -    0s
     0     0   37.00000    0   32   71.00000   37.00000  47.9%     -    0s
     0     0   37.00000    0   34   71.00000   37.00000  47.9%     -    0s
     0     0   37.00000    0   24   71.00000   37.00000  47.9%     -    0s
H    0     0                      70.0000000   37.00000  47.1%     -    0s
     0     0   37.00000    0   27   70.00000   37.00000  47.1%     -    0s
     0     0   37.00000    0   29   70.00000   37.00000  47.1%     -    0s
H    0     0                      69.0000000   37.00000  46.4%     -    0s
     0     0   37.00000    0   29   69.00000   37.00000  46.4%     -    0s
     0     0   37.00000    0   30   69.00000   37.00000  46.4%     -    0s
     0     0   37.00000    0   20   69.00000   37.00000  46.4%     -    0s
     0     2   37.00000    0   18   69.00000   37.00000  46.4%     -    0s
H   81    84                      61.0000000   37.00000  39.3%  25.6    0s
H  162   145                      59.0000000   37.00000  37.3%  18.2    0s
H  207   199                      57.0000000   37.00000  35.1%  22.4    1s
H  216   199                      56.0000000   37.00000  33.9%  22.4    1s
H  366   335                      55.0000000   37.00000  32.7%  27.0    2s
H  644   574                      55.0000000   37.00000  32.7%  26.5    4s
H  645   574                      54.0000000   37.00000  31.5%  26.5    4s
H  656   574                      52.0000000   37.00000  28.8%  27.6    4s
   660   804   37.51489   32   62   52.00000   37.00000  28.8%  27.7    5s
H 1079   923                      52.0000000   37.00000  28.8%  26.3    6s
H 1165   923                      50.0000000   37.00000  26.0%  26.1    6s
H 1302  1163                      50.0000000   37.00000  26.0%  26.4    7s
H 1636  1163                      49.0000000   37.00000  24.5%  26.3    8s
H 1979  1783                      49.0000000   37.00000  24.5%  24.6    9s
  3731  1787   40.00000   13   25   49.00000   37.00000  24.5%  23.3   10s
  4140  1940   46.00000   26   32   49.00000   37.00000  24.5%  26.4   15s
  4318  1955 infeasible   31        49.00000   37.00000  24.5%  27.6   20s
  4710  1973   47.00000   23   38   49.00000   37.00000  24.5%  29.3   25s
  5601  1776   43.00000   26   42   49.00000   37.00000  24.5%  33.6   30s
  6982  1632   37.00000   29   38   49.00000   37.00000  24.5%  38.7   36s
H 8225  1231                      48.0000000   37.00000  22.9%  42.3   37s
  8311  1263 infeasible   30        48.00000   37.00000  22.9%  42.4   40s
H 8336  1169                      48.0000000   37.00000  22.9%  42.5   40s
  9706  1178   43.00000   35   30   48.00000   37.00000  22.9%  46.4   47s
 11605  1411 infeasible   40        48.00000   37.00000  22.9%  50.7   52s
 12279  1512 infeasible   27        48.00000   37.00000  22.9%  51.3   56s
 13876  1619   37.00000   26   46   48.00000   37.00000  22.9%  54.5   61s
 14942  1712 infeasible   36        48.00000   37.00000  22.9%  55.8   66s
 16614  1829   41.00000   30   38   48.00000   37.00000  22.9%  56.8   70s
 17264  2069   37.15094   30   53   48.00000   37.00000  22.9%  57.6   76s
 19866  2241   43.00000   34   56   48.00000   37.00000  22.9%  59.2   82s
 21095  2307   39.00000   24   36   48.00000   37.00000  22.9%  59.3   87s
 21611  2297 infeasible   34        48.00000   37.00000  22.9%  59.8   94s
 21654  2277 infeasible   34        48.00000   37.00000  22.9%  59.9   96s
 21798  2282   39.00000   19   37   48.00000   37.00000  22.9%  59.9  101s
 22996  2362   39.00000   26   29   48.00000   38.00000  20.8%  59.7  108s
 23332  2289 infeasible   27        48.00000   38.00000  20.8%  59.7  113s
*27026  1930              34      47.0000000   39.00000  17.0%  59.1  114s
 27256  1899     cutoff   30        47.00000   39.00000  17.0%  59.1  118s
 27286  1904 infeasible   30        47.00000   39.00000  17.0%  59.1  120s
 28246  1909 infeasible   37        47.00000   39.00000  17.0%  59.0  125s
 29646  1823     cutoff   30        47.00000   40.00000  14.9%  59.1  133s
 29690  1768 infeasible   33        47.00000   41.00000  12.8%  59.1  136s
 31063  1774   46.00000   30   44   47.00000   41.00000  12.8%  58.6  141s
 31211  1728   46.00000   31   27   47.00000   41.00000  12.8%  58.6  146s
 33199  1699 infeasible   37        47.00000   42.00000  10.6%  58.6  151s
 35309  1371   46.00000   35   26   47.00000   43.00000  8.51%  58.3  165s
 37215  1133   46.00000   29   25   47.00000   43.00000  8.51%  57.5  172s
 37242   922   46.00000   30   20   47.00000   43.00000  8.51%  57.5  183s
 40905   918 infeasible   45        47.00000   43.00000  8.51%  57.2  189s
 40945   902 infeasible   33        47.00000   43.00000  8.51%  57.2  192s
 41059   888   46.00000   35   40   47.00000   46.00000  2.13%  57.2  198s
 41113   807 infeasible   36        47.00000   46.00000  2.13%  57.2  200s
 42319   806   46.00000   28   20   47.00000   46.00000  2.13%  56.8  208s
 42360   665   46.00000   29   19   47.00000   46.00000  2.13%  56.8  213s
 44440   659   46.00000   32   28   47.00000   46.00000  2.13%  56.4  219s
 44537   573 infeasible   26        47.00000   46.00000  2.13%  56.4  224s
 46098   541 infeasible   31        47.00000   46.00000  2.13%  55.9  230s
 48805   310 infeasible   25        47.00000   46.00000  2.13%  55.4  241s
 49394   174   46.00000   24   28   47.00000   46.00000  2.13%  55.3  245s
 51162   171   46.00000   36   20   47.00000   46.00000  2.13%  55.0  252s
 51343   160 infeasible   37        47.00000   46.00000  2.13%  55.0  256s
 51726    45 infeasible   27        47.00000   46.00000  2.13%  55.0  260s
 53128    48 infeasible   27        47.00000   46.00000  2.13%  54.9  266s
 53748     3 infeasible   27        47.00000   46.00000  2.13%  54.8  271s

Cutting planes:
  Learned: 1961
  Gomory: 11
  Cover: 76
  Implied bound: 9
  Clique: 14
  MIR: 173
  StrongCG: 10
  Flow cover: 268
  GUB cover: 38
  Zero half: 2
  Relax-and-lift: 66

Explored 53805 nodes (2954775 simplex iterations) in 271.40 seconds (247.05 work units)
Thread count was 18 (of 36 available processors)

Solution count 10: 47 47 48 ... 52

Optimal solution found (tolerance 1.00e-04)
Best objective 4.700000000000e+01, best bound 4.700000000000e+01, gap 0.0000%

Gurobi 11.0.0 (win64) logging started Tue Jun 18 11:40:41 2024

Set parameter LogFile to value "./Results/StripPacking-ManyRuns/Logs/RU-111-StripPacking-15-3.log"
Set parameter TimeLimit to value 3600
Set parameter Cuts to value 1
Set parameter Presolve to value 1
Set parameter Heuristics to value 1
Set parameter LPWarmStart to value 2
Gurobi Optimizer version 11.0.0 build v11.0.0rc2 (win64 - Windows 10.0 (19045.2))

CPU model: Intel(R) Core(TM) i9-10980XE CPU @ 3.00GHz, instruction set [SSE2|AVX|AVX2|AVX512]
Thread count: 18 physical cores, 36 logical processors, using up to 18 threads

Optimize a model with 1590 rows, 451 columns and 4230 nonzeros
Model fingerprint: 0x31c45883
Variable types: 31 continuous, 420 integer (420 binary)
Coefficient statistics:
  Matrix range     [1e+00, 1e+04]
  Objective range  [1e+00, 1e+00]
  Bounds range     [1e+00, 1e+04]
  RHS range        [1e+00, 1e+04]

Warning: Completing partial solution with 420 unfixed non-continuous variables out of 420
User MIP start produced solution with objective 62.1 (0.00s)
User MIP start produced solution with objective 62.1 (0.00s)
Loaded user MIP start with objective 62.1

Presolve removed 210 rows and 0 columns
Presolve time: 0.00s
Presolved: 1380 rows, 451 columns, 4394 nonzeros
Variable types: 31 continuous, 420 integer (420 binary)

Root relaxation: objective 3.000000e+01, 366 iterations, 0.02 seconds (0.01 work units)

    Nodes    |    Current Node    |     Objective Bounds      |     Work
 Expl Unexpl |  Obj  Depth IntInf | Incumbent    BestBd   Gap | It/Node Time

     0     0   30.00000    0   32   62.10000   30.00000  51.7%     -    0s
H    0     0                      60.0000000   30.00000  50.0%     -    0s
     0     0   30.00000    0   42   60.00000   30.00000  50.0%     -    0s
H    0     0                      59.0000000   30.00000  49.2%     -    0s
     0     0   30.00000    0   53   59.00000   30.00000  49.2%     -    0s
     0     0   30.00000    0   38   59.00000   30.00000  49.2%     -    0s
     0     0   30.00000    0   38   59.00000   30.00000  49.2%     -    0s
     0     0   30.00000    0   32   59.00000   30.00000  49.2%     -    0s
     0     0   30.00000    0   32   59.00000   30.00000  49.2%     -    0s
     0     0   30.00000    0   31   59.00000   30.00000  49.2%     -    0s
     0     0   30.00000    0   31   59.00000   30.00000  49.2%     -    0s
H    0     0                      58.0000000   30.00000  48.3%     -    0s
     0     2   30.00000    0   31   58.00000   30.00000  48.3%     -    0s
H  108   122                      57.0000000   30.00000  47.4%  23.0    0s
H  119   122                      56.0000000   30.00000  46.4%  22.9    0s
H  129   155                      51.0000000   30.00000  41.2%  22.8    0s
H  170   179                      50.0000000   30.00000  40.0%  21.2    1s
H  243   248                      49.0000000   30.00000  38.8%  20.8    3s
H  244   248                      48.0000000   30.00000  37.5%  20.7    3s
H  315   323                      46.0000000   30.00000  34.8%  20.3    4s
   336   302   30.00000   16   49   46.00000   30.00000  34.8%  20.5    6s
H  359   302                      45.0000000   30.00000  33.3%  19.3    6s
   749   677   40.00000   30   64   45.00000   30.00000  33.3%  20.3   10s
H 1116   848                      44.0000000   30.00000  31.8%  18.1   11s
H 1161   863                      43.0000000   30.00000  30.2%  18.1   12s
H 1532  1119                      43.0000000   30.00000  30.2%  17.7   14s
  1813  1090 infeasible   30        43.00000   30.00000  30.2%  17.5   15s
  2565  1437   36.00000   28   40   43.00000   30.00000  30.2%  18.6   20s
  2987  1715 infeasible   23        43.00000   30.00000  30.2%  18.7   25s
  3820  2102   38.00000   19   33   43.00000   30.00000  30.2%   4.7   31s
  3992  2189   32.00000   24   32   43.00000   30.00000  30.2%   6.6   35s
  4360  2269   36.00000   24   53   43.00000   30.00000  30.2%  10.5   40s
  4890  2466   39.00000   23   38   43.00000   30.00000  30.2%  14.7   45s
  5966  2575 infeasible   25        43.00000   30.00000  30.2%  22.1   51s
  6737  2611 infeasible   22        43.00000   30.00000  30.2%  24.8   55s
  7383  2572   40.00000   26   43   43.00000   30.00000  30.2%  27.4   60s
  8637  2643   42.00000   38   18   43.00000   30.00000  30.2%  31.2   65s
  9544  2795 infeasible   32        43.00000   30.00000  30.2%  33.1   70s
 10983  3152   30.09345   22   73   43.00000   30.00000  30.2%  36.0   75s
 11625  3287 infeasible   31        43.00000   30.00000  30.2%  36.7   80s
 12362  3596 infeasible   29        43.00000   30.00000  30.2%  37.4   85s
*13302  2999              45      42.0000000   30.41477  27.6%  38.0   87s
 13805  2911   40.00000   26   35   42.00000   30.41477  27.6%  38.3   91s
 15021  2946   41.00000   20   31   42.00000   31.00000  26.2%  39.1   96s
H15620  2951                      42.0000000   31.00000  26.2%  39.7   98s
 15906  2994   40.00000   25   30   42.00000   32.00000  23.8%  40.0  101s
 16926  3056   37.00000   22   35   42.00000   33.00000  21.4%  40.5  105s
 18474  3069     cutoff   22        42.00000   36.00000  14.3%  40.7  111s
 20303  3110   39.00000   24   33   42.00000   36.00000  14.3%  41.2  117s
 20392  3237   39.00000   25   33   42.00000   36.00000  14.3%  41.3  121s
 23571  3295   40.00000   30   16   42.00000   36.00000  14.3%  42.2  129s
 26983  3257 infeasible   30        42.00000   39.00000  7.14%  43.0  132s
 27381  3285 infeasible   31        42.00000   39.00000  7.14%  43.2  135s
 28535  3284 infeasible   30        42.00000   39.00000  7.14%  43.4  142s
 28656  3288   39.00000   28   30   42.00000   39.00000  7.14%  43.4  150s
 28687  3273 infeasible   28        42.00000   39.00000  7.14%  43.4  155s
 29076  3257 infeasible   25        42.00000   39.00000  7.14%  43.3  163s
 31390  3257 infeasible   31        42.00000   39.00000  7.14%  43.2  172s
 31426  3101   39.00000   32   33   42.00000   39.00000  7.14%  43.2  175s
 34115  3110   40.00000   29   24   42.00000   39.00000  7.14%  42.8  180s
 34142  3100   40.00000   30   30   42.00000   39.00000  7.14%  42.8  193s
 37907  3100   40.00000   28   35   42.00000   40.00000  4.76%  43.3  199s
 37943  3059 infeasible   29        42.00000   40.00000  4.76%  43.3  209s
 42450  3066   40.00000   22   35   42.00000   40.00000  4.76%  43.9  213s
 43185  2977   40.00000   27   30   42.00000   40.00000  4.76%  44.0  217s
 45602  2988 infeasible   31        42.00000   40.00000  4.76%  44.3  225s
 46319  2633 infeasible   28        42.00000   40.00000  4.76%  44.3  288s
 62310  2665   41.00000   34   18   42.00000   40.00000  4.76%  44.4  294s
 62707  2663 infeasible   35        42.00000   40.00000  4.76%  44.5  300s
 64802  2615   40.00000   27   32   42.00000   40.00000  4.76%  44.6  309s
 65395  2591   41.00000   28   30   42.00000   40.00000  4.76%  44.7  313s
 66724  2525   41.00000   28   40   42.00000   40.00000  4.76%  44.8  318s
 67742  2464   40.00000   32   33   42.00000   40.00000  4.76%  44.8  323s
 69751  2359 infeasible   37        42.00000   40.00000  4.76%  44.9  328s
 70900  2212 infeasible   29        42.00000   40.00000  4.76%  44.9  339s
 74741  2217   41.00000   26   69   42.00000   41.00000  2.38%  45.0  344s
 74808  2161   41.00000   28   56   42.00000   41.00000  2.38%  45.0  361s
 79408  2124   41.00000   29   41   42.00000   41.00000  2.38%  45.0  365s
 80456  2007   41.00000   30   35   42.00000   41.00000  2.38%  45.1  382s
 84556  1998 infeasible   32        42.00000   41.00000  2.38%  45.2  387s
 85111  1812 infeasible   27        42.00000   41.00000  2.38%  45.2  400s
 89623  1832   41.00000   25   38   42.00000   41.00000  2.38%  45.3  405s
 89785  1764   41.00000   26   36   42.00000   41.00000  2.38%  45.3  419s
 92299  1764   41.00000   36   34   42.00000   41.00000  2.38%  45.3  420s
 93878  1742   41.00000   25   32   42.00000   41.00000  2.38%  45.4  426s
 94536  1665 infeasible   26        42.00000   41.00000  2.38%  45.4  438s
 98333  1655     cutoff   31        42.00000   41.00000  2.38%  45.4  443s
 98813  1545   41.00000   26   47   42.00000   41.00000  2.38%  45.5  455s
 102610  1547   41.00000   31   39   42.00000   41.00000  2.38%  45.6  461s
 102648  1446 infeasible   32        42.00000   41.00000  2.38%  45.6  471s
 106912  1441 infeasible   27        42.00000   41.00000  2.38%  45.6  477s
 107234  1315 infeasible   28        42.00000   41.00000  2.38%  45.5  487s
 111784  1290   41.00000   20   37   42.00000   41.00000  2.38%  45.5  493s
 112223  1213   41.00000   21   33   42.00000   41.00000  2.38%  45.5  496s
 114306  1200   41.00000   27   25   42.00000   41.00000  2.38%  45.6  500s
 115136  1156     cutoff   29        42.00000   41.00000  2.38%  45.6  510s
 115650   877 infeasible   28        42.00000   41.00000  2.38%  45.6  530s
 121653   877 infeasible   39        42.00000   41.00000  2.38%  45.7  535s
 121731   639   41.00000   29   37   42.00000   41.00000  2.38%  45.7  544s
 125564   646   41.00000   34   31   42.00000   41.00000  2.38%  45.7  552s
 125597   531 infeasible   35        42.00000   41.00000  2.38%  45.7  555s
 127419   509   41.00000   28   47   42.00000   41.00000  2.38%  45.7  561s
 127888   388     cutoff   33        42.00000   41.00000  2.38%  45.7  565s
 130119   369   41.00000   32   45   42.00000   41.00000  2.38%  45.7  570s
 133395   187 infeasible   46        42.00000   41.00000  2.38%  45.6  580s
 134429    30 infeasible   35        42.00000   41.00000  2.38%  45.6  586s

Cutting planes:
  Learned: 2290
  Gomory: 8
  Cover: 57
  Implied bound: 11
  Clique: 8
  MIR: 180
  StrongCG: 8
  Flow cover: 346
  GUB cover: 31
  Zero half: 5
  Relax-and-lift: 103

Explored 134666 nodes (6211313 simplex iterations) in 589.25 seconds (321.35 work units)
Thread count was 18 (of 36 available processors)

Solution count 10: 42 42 43 ... 50

Optimal solution found (tolerance 1.00e-04)
Best objective 4.200000000000e+01, best bound 4.200000000000e+01, gap 0.0000%

Gurobi 11.0.0 (win64) logging started Tue Jul  2 17:29:58 2024

Set parameter LogFile to value "./Results/StripPacking-ManyRuns/Logs/RU-111-StripPacking-15-3.log"
Set parameter TimeLimit to value 3600
Set parameter Cuts to value 1
Set parameter Presolve to value 1
Set parameter Heuristics to value 1
Set parameter LPWarmStart to value 2
Gurobi Optimizer version 11.0.0 build v11.0.0rc2 (win64 - Windows 10.0 (19045.2))

CPU model: Intel(R) Core(TM) i9-10980XE CPU @ 3.00GHz, instruction set [SSE2|AVX|AVX2|AVX512]
Thread count: 18 physical cores, 36 logical processors, using up to 18 threads

Optimize a model with 1590 rows, 451 columns and 4230 nonzeros
Model fingerprint: 0x31c45883
Variable types: 31 continuous, 420 integer (420 binary)
Coefficient statistics:
  Matrix range     [1e+00, 1e+04]
  Objective range  [1e+00, 1e+00]
  Bounds range     [1e+00, 1e+04]
  RHS range        [1e+00, 1e+04]

Warning: Completing partial solution with 420 unfixed non-continuous variables out of 420
User MIP start produced solution with objective 62.1 (0.00s)
User MIP start produced solution with objective 62.1 (0.00s)
Loaded user MIP start with objective 62.1

Presolve removed 210 rows and 0 columns
Presolve time: 0.02s
Presolved: 1380 rows, 451 columns, 4394 nonzeros
Variable types: 31 continuous, 420 integer (420 binary)

Root relaxation: objective 3.000000e+01, 366 iterations, 0.02 seconds (0.01 work units)

    Nodes    |    Current Node    |     Objective Bounds      |     Work
 Expl Unexpl |  Obj  Depth IntInf | Incumbent    BestBd   Gap | It/Node Time

     0     0   30.00000    0   32   62.10000   30.00000  51.7%     -    0s
H    0     0                      60.0000000   30.00000  50.0%     -    0s
     0     0   30.00000    0   42   60.00000   30.00000  50.0%     -    0s
H    0     0                      59.0000000   30.00000  49.2%     -    0s
     0     0   30.00000    0   53   59.00000   30.00000  49.2%     -    0s
     0     0   30.00000    0   38   59.00000   30.00000  49.2%     -    0s
     0     0   30.00000    0   38   59.00000   30.00000  49.2%     -    0s
     0     0   30.00000    0   32   59.00000   30.00000  49.2%     -    0s
     0     0   30.00000    0   32   59.00000   30.00000  49.2%     -    0s
     0     0   30.00000    0   31   59.00000   30.00000  49.2%     -    0s
     0     0   30.00000    0   31   59.00000   30.00000  49.2%     -    0s
H    0     0                      58.0000000   30.00000  48.3%     -    0s
     0     2   30.00000    0   31   58.00000   30.00000  48.3%     -    0s
H  108   122                      57.0000000   30.00000  47.4%  23.0    0s
H  119   122                      56.0000000   30.00000  46.4%  22.9    0s
H  129   155                      51.0000000   30.00000  41.2%  22.8    0s
H  170   179                      50.0000000   30.00000  40.0%  21.2    1s
H  243   248                      49.0000000   30.00000  38.8%  20.8    3s
H  244   248                      48.0000000   30.00000  37.5%  20.7    3s
H  315   323                      46.0000000   30.00000  34.8%  20.3    3s
   336   302   30.00000   16   49   46.00000   30.00000  34.8%  20.5    6s
H  359   302                      45.0000000   30.00000  33.3%  19.3    6s
   749   677   40.00000   30   64   45.00000   30.00000  33.3%  20.3   10s
H 1116   848                      44.0000000   30.00000  31.8%  18.1   10s
H 1161   863                      43.0000000   30.00000  30.2%  18.1   11s
H 1532  1119                      43.0000000   30.00000  30.2%  17.7   14s
  1947  1217   40.00000   32   37   43.00000   30.00000  30.2%  18.4   15s
  2585  1613   36.00000   29   38   43.00000   30.00000  30.2%  18.7   21s
  3120  1946   41.00000   22   38   43.00000   30.00000  30.2%  18.8   25s
